; benchmark generated from python API
(set-info :status unknown)
(declare-fun s () Int)
(define-funs-rec ( ( T2_10 ((x!1 Int)) Int)
                   ( e2_10 ((x!1 Int)) Int)
                   ( f2_10 ((x!1 Int)) Int)
                   ( p2_10 ((x!1 Int)) Int)
                   ( T2_01 ((x!1 Int)) Int)
                   ( p2_01 ((x!1 Int)) Int))
                 ( (mod (+ ((_ e2_10 0) x!1) 1) 2)
                   (let ((a!1 ((_ f2_10 0) (+ ((_ e2_10 0) (- x!1 1)) 1))))
                     (ite (= x!1 0) 0 a!1))
                   (ite (= (mod ((_ p2_10 0) x!1) 2) 0)
                        x!1
                        ((_ f2_10 0) (+ x!1 1)))
                   (ite (= x!1 0) 0 (+ ((_ p2_10 0) (div x!1 2)) x!1))
                   (mod ((_ p2_01 0) x!1) 2)
                   (ite (= x!1 0) 0 (+ ((_ p2_01 0) (div x!1 2)) x!1))))
(assert
 (forall ((n Int) )(let ((?x356 ((_ T2_10 0) n)))
 (let (($x407 (= ?x356 n)))
 (let ((?x370 ((_ T2_01 0) n)))
 (let (($x459 (= ?x370 n)))
 (let (($x381 (and $x459 $x407)))
 (let (($x387 (< n s)))
 (let (($x382 (>= n 0)))
 (let (($x412 (and $x382 $x387)))
 (=> $x412 $x381))))))))))
 )
(assert
 (let ((?x480 ((_ T2_01 0) s)))
 (= ?x480 1)))
(assert
 (let ((?x481 ((_ T2_10 0) s)))
 (= ?x481 1)))
(assert
 (forall ((n Int) )(let ((?x356 ((_ T2_10 0) n)))
(let ((?x370 ((_ T2_01 0) n)))
(let (($x494 (= ?x370 ?x356)))
(let (($x382 (>= n 0)))
(=> $x382 $x494))))))
)
(check-sat)
